
  21    0


   0  11 2 3 4 5 8 9 10 17 18 19 20 
   8   4 16 14 12 11 
   3   2 15 6 
  10   2 15 7 
   2   2 13 12 
   5   1 13 
   1   1 11 
   1   1 14 
   7   1 12 
   7   1 11 
   4   1 21
  10   1 21
   1   1 21
   7   1 21
   1   1 21
   3   1 21
   5   1 21
   4   1 21
   2   1 21
   1   1 21
   0   0 
